\ LP format - for model browsing. Use MPS format to capture full model detail.
Maximize
  46.29629629629628 z1 + 23.55555555555555 z2 + 40.07407407407404 z3
   + 13.81481481481479 z4 + 25.44444444444443 z5 + 21.92592592592594 z6
   + 18.44444444444441 z7 + 10.55555555555553 z8 + 17.59259259259258 z9
   + 32.48148148148147 z10 + 13 z11 + 46 z12 + 20 z13
   + 31.66666666666668 z14 + 41 z15 + 39 z16 + 36 z17
   + 40.3333333333333 z18 + 47.11111111111109 z19 + 38.33333333333324 z20
Subject To
 constraint1: 47 z1 + 24 z2 + 41 z3 + 14 z4 + 26 z5 + 23 z6 + 19 z7 + 11 z8
   + 18 z9 + 33 z10 + 13 z11 + 46 z12 + 20 z13 + 32 z14 + 41 z15 + 39 z16
   + 36 z17 + 41 z18 + 48 z19 + 40 z20 <= 200
 constraints2_7_&_13: z7 - z13 = 0
 constraints2_12_&_15: z12 - z15 = 0
 constraints2_15_&_16: z15 - z16 = 0
 constraints2_16_&_20: z16 - z20 = 0
 constraints3_3_|_11: z3 + z11 <= 1
 constraints3_7_|_17: z7 + z17 <= 1
 constraints3_8_|_19: z8 + z19 <= 1
 constraints3_10_|_18: z10 + z18 <= 1
 constraints3_11_|_19: z11 + z19 <= 1
 constraints3_12_|_17: z12 + z17 <= 1
 constraints3_12_|_18: z12 + z18 <= 1
 constraints3_12_|_19: z12 + z19 <= 1
 constraints3_14_|_17: z14 + z17 <= 1
 constraints3_16_|_18: z16 + z18 <= 1
 constraints3_17_|_20: z17 + z20 <= 1
 constraints3_18_|_20: z18 + z20 <= 1
 constraints3_19_|_20: z19 + z20 <= 1
Bounds
Binaries
 z1 z2 z3 z4 z5 z6 z7 z8 z9 z10 z11 z12 z13 z14 z15 z16 z17 z18 z19 z20
End
